10J3M/DAT/10J3MUNR-14.dat
10 3
26.6885 3.9648
25.7036 29.6443
31.1359 36.5818
28.1019 1.822
25.3008 26.0491
31.7374 34.0064
15.0832 46.0604
28.3925 8.1189
35.6038 40.0971
30.3734 44.7182
271.063