10J3M/SOL/10J3MUNR-14.sol
solution status: optimal solution found
objective value:                     64.9319333333333
x#1#2                                               1 	(obj:0)
x#2#1                                               1 	(obj:0)
x#3#3                                               1 	(obj:0)
x#4#1                                               1 	(obj:0)
x#5#2                                               1 	(obj:0)
x#6#1                               0.637976074481537 	(obj:0)
x#6#2                               0.362023925518463 	(obj:0)
x#7#1                                               1 	(obj:0)
x#8#2                               0.583953280988985 	(obj:0)
x#8#3                               0.416046719011015 	(obj:0)
x#9#1                                               1 	(obj:0)
x#10#1                                              1 	(obj:0)
z                                    64.9319333333333 	(obj:1)
